c read Graph
c width = 108
c time = 144 ms
c width = 14
c time = 253 ms
c width = 13
c time = 403 ms
c width = 12
c time = 2388 ms
c width = 11
c time = 6556 ms
c width = 11
c time = 7910 ms
s td 108 12 121
b 1 1 2 12
b 2 2 3 12 13
b 3 9 10 21 22
b 4 3 12 13 23
b 5 9 21 22 33
b 6 89 100 101 112
b 7 99 109 110 120
b 8 89 101 112 113
b 9 99 109 119 120
b 10 3 4 5 15
b 11 3 5 14 15 24 34
b 12 3 14 23 24 34
b 13 3 13 14 23 24
b 14 5 14 15 24 26 34 36
b 15 5 15 24 26 34 36 46
b 16 24 34 35 36 46
b 17 5 15 26 34 36 46 56
b 18 5 15 17 26 27 36 46 56
b 19 5 17 26 27 36 38 46 48 56
b 20 26 36 37 38 48
b 21 5 17 27 36 38 46 48 56 58
b 22 36 46 47 48 58
b 23 5 17 27 38 46 48 56 58 68
b 24 5 17 27 29 38 40 48 50 56 58 68
b 25 17 27 29 38 39 40 50
b 26 17 27 28 29 39
b 27 5 9 17 19 29 38 40 48 50 56 58 68
b 28 9 19 20 29 30 38 40 48 50 56 58 68
b 29 9 20 29 30 38 40 48 50 56 58 60 68
b 30 38 48 49 50 60
b 31 5 7 9 17 19 29
b 32 7 17 18 19 29
b 33 7 8 9 19
b 34 5 6 7 17
b 35 46 56 57 58 68
b 36 5 15 16 17 27
b 37 34 45 46 56
b 38 14 24 25 26 36
b 39 9 20 30 32 40 44 48 50 56 58 60 68
b 40 20 30 32 40 42 44 48 50 56 58 60 68
b 41 30 32 40 41 42 44 48 50 56 58 60 68
b 42 32 40 41 42 44 48 50 54 56 58 60 68
b 43 40 41 42 44 48 50 52 54 56 58 60 68
b 44 40 42 44 48 50 52 54 56 58 60 62 68
b 45 42 44 48 50 52 53 54 56 58 60 62 68
b 46 44 48 50 52 53 54 56 58 60 62 66 68
b 47 48 50 52 53 54 56 58 59 60 62 66 68
b 48 50 52 53 54 56 58 59 60 62 66 68 72
b 49 52 53 54 56 58 59 60 62 64 66 68 72
b 50 52 54 56 58 59 60 62 64 66 68 72 74
b 51 54 56 58 59 60 62 64 66 68 72 74 76
b 52 56 58 59 60 62 64 66 68 70 72 74 76
b 53 56 58 60 62 64 66 68 70 71 72 74 76
b 54 56 58 62 64 66 68 70 71 72 73 74 76
b 55 56 58 64 66 68 70 71 72 73 74 75 76
b 56 56 58 66 68 70 71 72 73 74 75 76 77
b 57 56 58 68 70 71 72 73 74 75 76 77 82
b 58 56 58 68 70 72 73 74 75 76 77 82 83
b 59 56 58 68 70 73 74 75 76 77 82 83 84
b 60 56 58 68 70 74 75 76 77 82 83 84 86
b 61 56 58 68 70 74 76 77 82 83 84 86 96
b 62 56 58 68 70 76 77 82 83 84 86 88 96
b 63 56 58 68 70 76 82 83 84 86 88 94 96
b 64 56 58 68 70 76 82 84 86 88 94 95 96
b 65 56 58 68 70 76 82 86 88 94 95 96 106
b 66 56 58 68 70 76 82 86 88 94 96 106 116
b 67 76 82 86 88 94 96 106 116 118
b 68 50 60 61 62 72
b 69 52 62 63 64 74
b 70 44 54 55 66
b 71 54 64 65 66 76
b 72 40 50 51 52 62
b 73 32 42 43 44 54
b 74 20 30 31 32 42
b 75 9 20 32 33 44
b 76 9 20 21 32 33
b 77 74 84 85 86 96
b 78 76 86 88 96 106 108 118
b 79 96 106 107 108 118
b 80 76 86 88 96 98 108 118
b 81 88 98 108 118 119
b 82 88 98 99 108 119
b 83 98 99 108 109 119
b 84 76 86 87 88 98
b 85 86 96 97 98 108
b 86 106 116 117 118
b 87 56 58 68 70 82 94 104 106 116
b 88 56 58 68 70 82 92 94 104 116
b 89 56 58 68 70 80 82 92 104 116
b 90 58 68 69 70 80
b 91 56 68 80 92 104 114 116
b 92 104 114 115 116
b 93 56 68 78 80 92 104 114
b 94 68 78 80 92 102 104 114
b 95 92 102 103 104 114
b 96 68 78 80 90 92 102 114
b 97 68 78 79 80 90
b 98 78 90 102 113 114
b 99 78 89 90 102 113
b 100 89 90 101 102 113
b 101 80 90 91 92 102
b 102 56 67 68 78
b 103 70 80 81 82 92
b 104 82 92 93 94 104
b 105 94 104 105 106 116
b 106 110 120 121
b 107 100 111 112
b 108 10 11 22
1 2
2 4
3 108
3 5
4 13
5 76
6 107
6 8
7 106
7 9
8 100
9 83
10 11
11 14
11 12
12 13
14 38
14 15
15 17
15 16
17 37
17 18
18 36
18 19
19 21
19 20
21 23
21 22
23 35
23 24
24 27
24 25
25 26
27 31
27 28
28 29
29 39
29 30
31 33
31 34
31 32
39 75
39 40
40 74
40 41
41 42
42 73
42 43
43 44
44 72
44 45
45 46
46 70
46 47
47 48
48 68
48 49
49 50
50 69
50 51
51 71
51 52
52 53
53 54
54 55
55 56
56 57
57 58
58 59
59 60
60 61
61 77
61 62
62 63
63 64
64 65
65 66
66 87
66 67
67 86
67 78
75 76
78 79
78 80
80 81
80 84
80 85
81 82
82 83
87 88
87 105
88 89
88 104
89 90
89 91
89 103
91 92
91 93
93 102
93 94
94 95
94 96
96 98
96 97
96 101
98 99
99 100
